OBJ 34934874.0
16 21
21 24
6 23
23 29
24 14
24 26
26 27
26 31
1 27
27 28
29 28
29 30
14 25
25 7
25 8
31 12
28 33
33 3
30 4
30 10
8 35
35 11
35 13
3 36
36 5
36 17
44 43
44 45
45 15
20 38
38 17
38 9
9 43
43 42
41 2
41 42
13 39
39 40
40 18
42 19
